decision_x5=[0,4];
decision_x6=[0,4];
decision_x1=[0,4];
decision_x2=[0,4];
decision_x3=[0,4];
decision_x4=[0,4];
random_y1=[0,4];
random_y2=[0,4];
random_y3=[0,4];
constraint_x2_x1=[
0,1,2|
0,2,3.5|
0,3,2.1|
0,4,7.9|
1,0,5.5|
1,2,2|
1,3,6.1|
1,4,7.6|
2,0,6.2|
2,1,6.6|
2,3,3.9|
2,4,5.9|
3,0,3.5|
3,1,3.2|
3,2,7.1|
3,4,8.5|
4,0,4.7|
4,1,9.9|
4,2,9.2|
4,3,5|
];
constraint_x3_x2=[
0,1,7.8|
0,2,0.69|
0,3,2.3|
0,4,7.3|
1,0,2.8|
1,2,4.1|
1,3,8.7|
1,4,9.7|
2,0,2.7|
2,1,8|
2,3,6.5|
2,4,8.1|
3,0,7.2|
3,1,1.2|
3,2,9.4|
3,4,9.4|
4,0,7.2|
4,1,2.6|
4,2,5.6|
4,3,7.4|
];
constraint_x4_x2=[
0,1,0.084|
0,2,7.7|
0,3,2.6|
0,4,0.5|
1,0,9.5|
1,2,7.3|
1,3,3.9|
1,4,5.2|
2,0,2|
2,1,0.81|
2,3,7|
2,4,5|
3,0,2.5|
3,1,1.3|
3,2,6.7|
3,4,7.6|
4,0,7.4|
4,1,7.5|
4,2,0.52|
4,3,8.2|
];
constraint_x4_x3=[
0,1,1.8|
0,2,3.7|
0,3,1.7|
0,4,5.6|
1,0,4.4|
1,2,7.6|
1,3,0.15|
1,4,0.15|
2,0,5.2|
2,1,0.92|
2,3,3.7|
2,4,1.2|
3,0,8.3|
3,1,4.7|
3,2,4.4|
3,4,0.45|
4,0,0.95|
4,1,8|
4,2,6|
4,3,8.7|
];
constraint_x5_x2=[
0,1,7.3|
0,2,4.1|
0,3,4.8|
0,4,1.5|
1,0,8|
1,2,9|
1,3,9.6|
1,4,7.8|
2,0,4.7|
2,1,7.5|
2,3,7.5|
2,4,0.22|
3,0,5.3|
3,1,4.5|
3,2,7.5|
3,4,7.4|
4,0,6.1|
4,1,0.0023|
4,2,9.4|
4,3,5.4|
];
constraint_x5_x3=[
0,1,3.5|
0,2,3.4|
0,3,9|
0,4,5.4|
1,0,6.7|
1,2,5.5|
1,3,8.5|
1,4,6.2|
2,0,9.3|
2,1,1.7|
2,3,9.6|
2,4,0.026|
3,0,3.9|
3,1,8.5|
3,2,0.44|
3,4,2.9|
4,0,9.8|
4,1,7.1|
4,2,1.6|
4,3,3.7|
];
constraint_x6_x1=[
0,1,1|
0,2,0.74|
0,3,8.1|
0,4,4.9|
1,0,3|
1,2,1|
1,3,2|
1,4,2.8|
2,0,8.1|
2,1,0.55|
2,3,8.4|
2,4,7.6|
3,0,6.8|
3,1,9.8|
3,2,1.3|
3,4,6.3|
4,0,3.7|
4,1,3.8|
4,2,1.6|
4,3,0.45|
];
constraint_x6_x5=[
0,1,5|
0,2,2.5|
0,3,9.5|
0,4,3.3|
1,0,2|
1,2,9.4|
1,3,9.6|
1,4,4.4|
2,0,0.56|
2,1,4.2|
2,3,5.4|
2,4,2.1|
3,0,9.4|
3,1,0.92|
3,2,4.8|
3,4,5.7|
4,0,0.59|
4,1,0.69|
4,2,7.2|
4,3,6.1|
];
constraint_x1_y1=[
0,0,8|
0,1,4.4|
0,2,6.2|
0,3,5|
0,4,0.45|
1,0,2.3|
1,1,2.2|
1,2,3.4|
1,3,2.3|
1,4,0.68|
2,0,9.4|
2,1,7.2|
2,2,0.69|
2,3,4.5|
2,4,8.7|
3,0,1.9|
3,1,7.4|
3,2,0.41|
3,3,7.9|
3,4,4.3|
4,0,9.6|
4,1,0.25|
4,2,0.16|
4,3,5.2|
4,4,0.019|
];
constraint_x2_y2=[
0,0,1|
0,1,0.12|
0,2,3.8|
0,3,3.4|
0,4,5.7|
1,0,6.2|
1,1,0.5|
1,2,1.9|
1,3,4.1|
1,4,3.7|
2,0,8.7|
2,1,2.9|
2,2,8.8|
2,3,3.2|
2,4,2.3|
3,0,2.7|
3,1,3.2|
3,2,8|
3,3,2|
3,4,6|
4,0,8.4|
4,1,4.3|
4,2,0.49|
4,3,4.1|
4,4,0.1|
];
constraint_x3_y3=[
0,0,2.7|
0,1,4.7|
0,2,2.5|
0,3,6.6|
0,4,2.1|
1,0,1.2|
1,1,4.7|
1,2,2.2|
1,3,7.8|
1,4,1.8|
2,0,4.5|
2,1,3.6|
2,2,1|
2,3,0.23|
2,4,6.5|
3,0,5.9|
3,1,3.5|
3,2,4.2|
3,3,4.6|
3,4,9.7|
4,0,4.2|
4,1,0.7|
4,2,4.9|
4,3,1.5|
4,4,3.6|
];
initial_distribution_y1=[0.022,0.16,0.09,0.53,0.2];
initial_distribution_y2=[0.16,0.036,0.26,0.18,0.36];
initial_distribution_y3=[0.038,0.25,0.31,0.19,0.22];
transition_y1=[
0.11,0.22,0.32,0.11,0.24|
0.11,0.14,0.29,0.24,0.23|
0.065,0.086,0.2,0.33,0.32|
0.11,0.15,0.22,0.19,0.33|
0.25,0.22,0.03,0.17,0.33|
];
transition_y2=[
0.19,0.16,0.2,0.39,0.06|
0.18,0.22,0.087,0.31,0.21|
0.23,0.18,0.27,0.052,0.27|
0.36,0.23,0.25,0.1,0.058|
0.29,0.077,0.25,0.2,0.18|
];
transition_y3=[
0.14,0.38,0.025,0.074,0.38|
0.28,0.17,0.13,0.13,0.29|
0.11,0.22,0.27,0.37,0.032|
0.23,0.16,0.14,0.24,0.23|
0.25,0.14,0.15,0.24,0.22|
];
